RST04
Position Depot: Random
Horizon for Depot: Small
Position of customers: Random
Distribution of the demand: Small
Width of time windows: Tight
Distribution of the service: Large

VEHICLE 
NUMBER 	 CAPACITY 
 11 	 	 69 
 
CUSTOMER
CUST NO. 	 XCOORD.  	 YCOORD. 	 DEMAND 	 READY TIME 	 DUE DATE 	 SERVICE TIME 
 0 	 	 157 	 	 238 	 	 0 	 	 0 	 	 2219 	 	 0 
  1 	 	 697 	 	 591 	 	 6 	 	 1952 	 	 2034 	 	 136 
  2 	 	 741 	 	 717 	 	 9 	 	 688 	 	 830 	 	 166 
  3 	 	 598 	 	 176 	 	 7 	 	 2016 	 	 2173 	 	 103 
  4 	 	 435 	 	 971 	 	 7 	 	 1248 	 	 1410 	 	 136 
  5 	 	 705 	 	 917 	 	 10 	 	 1089 	 	 1212 	 	 178 
  6 	 	 527 	 	 307 	 	 10 	 	 350 	 	 414 	 	 178 
  7 	 	 846 	 	 701 	 	 9 	 	 740 	 	 913 	 	 109 
  8 	 	 346 	 	 723 	 	 8 	 	 2024 	 	 2116 	 	 145 
  9 	 	 150 	 	 606 	 	 8 	 	 2105 	 	 2187 	 	 108 
  10 	 	 669 	 	 269 	 	 6 	 	 480 	 	 564 	 	 115 
  11 	 	 724 	 	 177 	 	 7 	 	 543 	 	 627 	 	 174 
  12 	 	 804 	 	 621 	 	 5 	 	 734 	 	 827 	 	 126 
  13 	 	 999 	 	 754 	 	 9 	 	 968 	 	 1086 	 	 148 
  14 	 	 802 	 	 149 	 	 7 	 	 894 	 	 1055 	 	 172 
  15 	 	 468 	 	 743 	 	 9 	 	 478 	 	 652 	 	 139 
  16 	 	 948 	 	 214 	 	 5 	 	 738 	 	 870 	 	 188 
  17 	 	 813 	 	 578 	 	 9 	 	 738 	 	 812 	 	 151 
  18 	 	 321 	 	 371 	 	 5 	 	 472 	 	 566 	 	 109 
  19 	 	 383 	 	 27 	 	 6 	 	 1051 	 	 1118 	 	 181 
  20 	 	 557 	 	 851 	 	 7 	 	 1641 	 	 1725 	 	 187 
  21 	 	 177 	 	 704 	 	 8 	 	 426 	 	 596 	 	 130 
  22 	 	 190 	 	 405 	 	 8 	 	 792 	 	 873 	 	 117 
  23 	 	 349 	 	 660 	 	 9 	 	 2091 	 	 2142 	 	 187 
  24 	 	 203 	 	 643 	 	 5 	 	 1189 	 	 1272 	 	 175 
  25 	 	 220 	 	 670 	 	 10 	 	 1966 	 	 2154 	 	 148 
  26 	 	 910 	 	 725 	 	 10 	 	 1795 	 	 1855 	 	 175 
  27 	 	 964 	 	 542 	 	 9 	 	 1574 	 	 1725 	 	 148 
  28 	 	 519 	 	 473 	 	 6 	 	 832 	 	 949 	 	 141 
  29 	 	 275 	 	 674 	 	 10 	 	 366 	 	 496 	 	 192 
  30 	 	 764 	 	 870 	 	 10 	 	 1564 	 	 1745 	 	 182 
  31 	 	 904 	 	 63 	 	 9 	 	 1982 	 	 2059 	 	 130 
  32 	 	 755 	 	 210 	 	 6 	 	 562 	 	 658 	 	 100 
  33 	 	 441 	 	 586 	 	 7 	 	 1114 	 	 1164 	 	 193 
  34 	 	 104 	 	 693 	 	 5 	 	 1496 	 	 1593 	 	 169 
  35 	 	 259 	 	 701 	 	 5 	 	 1577 	 	 1753 	 	 122 
  36 	 	 298 	 	 273 	 	 10 	 	 589 	 	 766 	 	 145 
  37 	 	 249 	 	 263 	 	 10 	 	 858 	 	 995 	 	 127 
  38 	 	 468 	 	 48 	 	 7 	 	 1327 	 	 1504 	 	 186 
  39 	 	 201 	 	 215 	 	 8 	 	 675 	 	 807 	 	 161 
  40 	 	 22 	 	 811 	 	 8 	 	 1732 	 	 1848 	 	 125 
  41 	 	 566 	 	 349 	 	 6 	 	 1712 	 	 1909 	 	 139 
  42 	 	 186 	 	 724 	 	 10 	 	 1677 	 	 1782 	 	 124 
  43 	 	 60 	 	 82 	 	 10 	 	 761 	 	 853 	 	 146 
  44 	 	 416 	 	 928 	 	 6 	 	 818 	 	 868 	 	 156 
  45 	 	 371 	 	 522 	 	 9 	 	 267 	 	 391 	 	 164 
  46 	 	 621 	 	 533 	 	 10 	 	 588 	 	 667 	 	 128 
  47 	 	 827 	 	 662 	 	 9 	 	 782 	 	 872 	 	 190 
  48 	 	 952 	 	 426 	 	 8 	 	 703 	 	 898 	 	 142 
  49 	 	 889 	 	 16 	 	 9 	 	 1229 	 	 1294 	 	 153 
  50 	 	 320 	 	 517 	 	 10 	 	 931 	 	 1125 	 	 119 
  51 	 	 397 	 	 688 	 	 6 	 	 1454 	 	 1586 	 	 117 
  52 	 	 128 	 	 548 	 	 10 	 	 1880 	 	 2051 	 	 194 
  53 	 	 608 	 	 401 	 	 8 	 	 671 	 	 791 	 	 158 
  54 	 	 397 	 	 346 	 	 9 	 	 509 	 	 653 	 	 109 
  55 	 	 608 	 	 145 	 	 5 	 	 357 	 	 537 	 	 129 
  56 	 	 275 	 	 680 	 	 7 	 	 797 	 	 850 	 	 173 
  57 	 	 10 	 	 405 	 	 5 	 	 1759 	 	 1826 	 	 157 
  58 	 	 148 	 	 319 	 	 9 	 	 399 	 	 489 	 	 193 
  59 	 	 174 	 	 906 	 	 5 	 	 2108 	 	 2187 	 	 189 
  60 	 	 111 	 	 977 	 	 6 	 	 2111 	 	 2162 	 	 198 
  61 	 	 509 	 	 583 	 	 5 	 	 1373 	 	 1459 	 	 186 
  62 	 	 17 	 	 518 	 	 5 	 	 1254 	 	 1431 	 	 197 
  63 	 	 593 	 	 190 	 	 9 	 	 551 	 	 728 	 	 184 
  64 	 	 915 	 	 124 	 	 7 	 	 707 	 	 843 	 	 183 
  65 	 	 840 	 	 360 	 	 6 	 	 2037 	 	 2111 	 	 100 
  66 	 	 999 	 	 489 	 	 6 	 	 1036 	 	 1100 	 	 177 
  67 	 	 798 	 	 799 	 	 9 	 	 737 	 	 937 	 	 169 
  68 	 	 282 	 	 842 	 	 7 	 	 1113 	 	 1250 	 	 146 
  69 	 	 961 	 	 282 	 	 6 	 	 1117 	 	 1263 	 	 150 
  70 	 	 720 	 	 200 	 	 10 	 	 1384 	 	 1450 	 	 180 
  71 	 	 940 	 	 450 	 	 5 	 	 1845 	 	 1974 	 	 109 
  72 	 	 562 	 	 413 	 	 7 	 	 2089 	 	 2206 	 	 126 
  73 	 	 475 	 	 458 	 	 6 	 	 1808 	 	 1859 	 	 154 
  74 	 	 929 	 	 302 	 	 10 	 	 1116 	 	 1181 	 	 104 
  75 	 	 216 	 	 438 	 	 7 	 	 908 	 	 1071 	 	 144 
  76 	 	 336 	 	 878 	 	 8 	 	 1105 	 	 1288 	 	 186 
  77 	 	 1 	 	 274 	 	 6 	 	 1104 	 	 1155 	 	 184 
  78 	 	 72 	 	 147 	 	 10 	 	 573 	 	 743 	 	 174 
  79 	 	 635 	 	 106 	 	 7 	 	 1045 	 	 1196 	 	 179 
  80 	 	 930 	 	 332 	 	 5 	 	 656 	 	 856 	 	 181 
  81 	 	 119 	 	 156 	 	 7 	 	 254 	 	 329 	 	 131 
  82 	 	 959 	 	 561 	 	 9 	 	 1259 	 	 1318 	 	 127 
  83 	 	 228 	 	 357 	 	 6 	 	 215 	 	 297 	 	 164 
  84 	 	 119 	 	 243 	 	 6 	 	 722 	 	 894 	 	 133 
  85 	 	 405 	 	 867 	 	 7 	 	 2127 	 	 2201 	 	 143 
  86 	 	 734 	 	 577 	 	 5 	 	 792 	 	 891 	 	 133 
  87 	 	 535 	 	 182 	 	 5 	 	 1912 	 	 1993 	 	 102 
  88 	 	 719 	 	 151 	 	 10 	 	 1593 	 	 1717 	 	 134 
  89 	 	 674 	 	 611 	 	 5 	 	 592 	 	 701 	 	 137 
  90 	 	 27 	 	 892 	 	 10 	 	 1276 	 	 1332 	 	 161 
  91 	 	 161 	 	 196 	 	 10 	 	 642 	 	 799 	 	 118 
  92 	 	 467 	 	 839 	 	 8 	 	 604 	 	 743 	 	 114 
  93 	 	 831 	 	 45 	 	 10 	 	 683 	 	 771 	 	 172 
  94 	 	 371 	 	 783 	 	 8 	 	 509 	 	 644 	 	 140 
  95 	 	 963 	 	 853 	 	 10 	 	 1454 	 	 1525 	 	 106 
  96 	 	 276 	 	 894 	 	 6 	 	 2045 	 	 2219 	 	 134 
  97 	 	 267 	 	 549 	 	 5 	 	 553 	 	 690 	 	 117 
  98 	 	 235 	 	 450 	 	 10 	 	 1644 	 	 1844 	 	 178 
  99 	 	 784 	 	 551 	 	 5 	 	 965 	 	 1080 	 	 160 
  100 	 	 921 	 	 898 	 	 9 	 	 1480 	 	 1592 	 	 102 
 